
  32    4
  10   10   10   10

   0   0   0   0   0   2 2 7 
   8   0   1   1   1   2 20 3 
   6   0   5   5  10   1 4 
   5   1   5   0   2   1 5 
   3   0   3   4   5   2 11 6 
   9   4   5   0   6   1 8 
   8   6   0   5   4   1 8 
   6   0   2   1   3   1 9 
   2   3   0   2   3   2 24 10 
   2   5   5   7   0   1 12 
   8   3   3   4   0   1 12 
   6   3   3   0   5   1 13 
   5   5   3   4   0   1 14 
   5   0   4   7   5   2 22 15 
  10   2   0   7   3   1 16 
   2   0   6   4   3   1 17 
   5   4   5   0   5   1 18 
   1   3   4   0   6   1 19 
   3   4   3   4   0   1 21 
   4   0   5   4   2   1 21 
   5   5   0   3   2   1 23 
   7   0   3   3   5   1 23 
   8   3   2   4   0   2 31 25 
   5   4   0   5   4   1 25 
   8   3   0   4   5   1 26 
   3   3   8   3   0   1 27 
   2   3   4   0   4   1 28 
   1   4   5   0   4   1 29 
   9   5   0   3   5   1 30 
   1   6   4   0   1   1 32
   8   9   4   0   3   1 32
   0   0   0   0   0   0 
